\ENCODING=ISO-8859-1
\Problem name: ilog.cplex

Maximize
 obj: 1018 x(0)#0 + 396 x(1)#1 + 593 x(2)#2 + 784 x(3)#3 + 284 x(4)#4
      + 848 x(5)#5 + 380 x(6)#6 + 1077 x(7)#7 + 948 x(8)#8 + 928 x(9)#9
      + 786 x(10)#10 + 605 x(11)#11 + 638 x(12)#12 + 877 x(13)#13
      + 930 x(14)#14 + 500 x(15)#15 + 441 x(16)#16 + 785 x(17)#17
      + 726 x(18)#18 + 720 x(19)#19 + 535 x(20)#20 + 633 x(21)#21
      + 595 x(22)#22 + 794 x(23)#23 + 1007 x(24)#24 + 681 x(25)#25
      + 715 x(26)#26 + 872 x(27)#27 + 649 x(28)#28 + 842 x(29)#29
      + 685 x(30)#30 + 455 x(31)#31 + 920 x(32)#32 + 553 x(33)#33
      + 668 x(34)#34 + 867 x(35)#35 + 905 x(36)#36 + 812 x(37)#37
      + 493 x(38)#38 + 708 x(39)#39 + 451 x(40)#40 + 886 x(41)#41
      + 637 x(42)#42 + 817 x(43)#43 + 644 x(44)#44 + 589 x(45)#45
      + 594 x(46)#46 + 809 x(47)#47 + 975 x(48)#48 + 810 x(49)#49
      + 917 x(50)#50 + 795 x(51)#51 + 961 x(52)#52 + 929 x(53)#53
      + 605 x(54)#54 + 915 x(55)#55 + 878 x(56)#56 + 655 x(57)#57
      + 719 x(58)#58 + 1084 x(59)#59 + 785 x(60)#60 + 891 x(61)#61
      + 615 x(62)#62 + 681 x(63)#63 + 721 x(64)#64 + 771 x(65)#65
      + 599 x(66)#66 + 681 x(67)#67 + 690 x(68)#68 + 721 x(69)#69
      + 693 x(70)#70 + 826 x(71)#71 + 709 x(72)#72 + 694 x(73)#73
      + 803 x(74)#74 + 940 x(75)#75 + 712 x(76)#76 + 650 x(77)#77
      + 671 x(78)#78 + 582 x(79)#79 + 371 x(80)#80 + 599 x(81)#81
      + 590 x(82)#82 + 909 x(83)#83 + 749 x(84)#84 + 684 x(85)#85
      + 566 x(86)#86 + 1168 x(87)#87 + 950 x(88)#88 + 992 x(89)#89
      + 796 x(90)#90 + 954 x(91)#91 + 701 x(92)#92 + 768 x(93)#93
      + 477 x(94)#94 + 683 x(95)#95 + 706 x(96)#96 + 940 x(97)#97
      + 633 x(98)#98 + 653 x(99)#99
Subject To
 c1:  731 x(0)#0 + 176 x(1)#1 + 418 x(2)#2 + 308 x(3)#3 + 107 x(4)#4
      + 946 x(5)#5 + 121 x(6)#6 + 669 x(7)#7 + 431 x(8)#8 + 276 x(9)#9
      + 690 x(10)#10 + 18 x(11)#11 + 115 x(12)#12 + 978 x(13)#13 + 217 x(14)#14
      + 70 x(15)#15 + 479 x(16)#16 + 347 x(17)#17 + 461 x(18)#18 + 101 x(19)#19
      + 524 x(20)#20 + 353 x(21)#21 + 556 x(22)#22 + 390 x(23)#23
      + 992 x(24)#24 + 93 x(25)#25 + 735 x(26)#26 + 610 x(27)#27 + 136 x(28)#28
      + 512 x(29)#29 + 20 x(30)#30 + 250 x(31)#31 + 330 x(32)#32 + 346 x(33)#33
      + 527 x(34)#34 + 114 x(35)#35 + 728 x(36)#36 + 979 x(37)#37
      + 424 x(38)#38 + 791 x(39)#39 + 83 x(40)#40 + 690 x(41)#41 + 115 x(42)#42
      + 233 x(43)#43 + 309 x(44)#44 + 785 x(45)#45 + 370 x(46)#46
      + 409 x(47)#47 + 861 x(48)#48 + 60 x(49)#49 + 746 x(50)#50 + 706 x(51)#51
      + 392 x(52)#52 + 638 x(53)#53 + 408 x(54)#54 + 295 x(55)#55
      + 388 x(56)#56 + 250 x(57)#57 + 930 x(58)#58 + 727 x(59)#59 + 61 x(60)#60
      + 994 x(61)#61 + 397 x(62)#62 + 667 x(63)#63 + 963 x(64)#64
      + 866 x(65)#65 + 490 x(66)#66 + 131 x(67)#67 + 345 x(68)#68
      + 729 x(69)#69 + 775 x(70)#70 + 196 x(71)#71 + 199 x(72)#72
      + 861 x(73)#73 + 127 x(74)#74 + 235 x(75)#75 + 266 x(76)#76
      + 483 x(77)#77 + 961 x(78)#78 + 349 x(79)#79 + 592 x(80)#80
      + 689 x(81)#81 + 353 x(82)#82 + 822 x(83)#83 + 86 x(84)#84 + 676 x(85)#85
      + 201 x(86)#86 + 942 x(87)#87 + 933 x(88)#88 + 416 x(89)#89 + 21 x(90)#90
      + 570 x(91)#91 + 392 x(92)#92 + 731 x(93)#93 + 705 x(94)#94
      + 968 x(95)#95 + 823 x(96)#96 + 984 x(97)#97 + 675 x(98)#98
      + 377 x(99)#99 <= 24258
 c2:  1000 x(0)#0 + 61 x(1)#1 + 448 x(2)#2 + 660 x(3)#3 + 122 x(4)#4
      + 523 x(5)#5 + 583 x(6)#6 + 358 x(7)#7 + 930 x(8)#8 + 633 x(9)#9
      + 39 x(10)#10 + 587 x(11)#11 + 442 x(12)#12 + 567 x(13)#13 + 130 x(14)#14
      + 378 x(15)#15 + 492 x(16)#16 + 531 x(17)#17 + 30 x(18)#18 + 364 x(19)#19
      + 234 x(20)#20 + 638 x(21)#21 + 728 x(22)#22 + 236 x(23)#23
      + 843 x(24)#24 + 99 x(25)#25 + 199 x(26)#26 + 491 x(27)#27 + 324 x(28)#28
      + 893 x(29)#29 + 945 x(30)#30 + 458 x(31)#31 + 733 x(32)#32 + 6 x(33)#33
      + 360 x(34)#34 + 399 x(35)#35 + 886 x(36)#36 + 967 x(37)#37 + 66 x(38)#38
      + 995 x(39)#39 + 317 x(40)#40 + 962 x(41)#41 + 764 x(42)#42
      + 329 x(43)#43 + 402 x(44)#44 + 584 x(45)#45 + 724 x(46)#46
      + 199 x(47)#47 + 876 x(48)#48 + 204 x(49)#49 + 641 x(50)#50
      + 266 x(51)#51 + 747 x(52)#52 + 676 x(53)#53 + 498 x(54)#54
      + 715 x(55)#55 + 661 x(56)#56 + 411 x(57)#57 + 944 x(58)#58
      + 547 x(59)#59 + 36 x(60)#60 + 640 x(61)#61 + 429 x(62)#62 + 344 x(63)#63
      + 958 x(64)#64 + 996 x(65)#65 + 546 x(66)#66 + 372 x(67)#67
      + 211 x(68)#68 + 494 x(69)#69 + 658 x(70)#70 + 202 x(71)#71
      + 980 x(72)#72 + 367 x(73)#73 + 407 x(74)#74 + 760 x(75)#75
      + 920 x(76)#76 + 644 x(77)#77 + 744 x(78)#78 + 163 x(79)#79 + 37 x(80)#80
      + 94 x(81)#81 + 119 x(82)#82 + 94 x(83)#83 + 456 x(84)#84 + 379 x(85)#85
      + 812 x(86)#86 + 360 x(87)#87 + 238 x(88)#88 + 147 x(89)#89
      + 956 x(90)#90 + 424 x(91)#91 + 750 x(92)#92 + 290 x(93)#93
      + 519 x(94)#94 + 129 x(95)#95 + 629 x(96)#96 + 632 x(97)#97
      + 452 x(98)#98 + 517 x(99)#99 <= 24875
 c3:  503 x(0)#0 + 194 x(1)#1 + 237 x(2)#2 + 859 x(3)#3 + 309 x(4)#4
      + 143 x(5)#5 + 426 x(6)#6 + 273 x(7)#7 + 596 x(8)#8 + 202 x(9)#9
      + 598 x(10)#10 + 279 x(11)#11 + 615 x(12)#12 + 2 x(13)#13 + 739 x(14)#14
      + 41 x(15)#15 + 730 x(16)#16 + 379 x(17)#17 + 414 x(18)#18 + 579 x(19)#19
      + 734 x(20)#20 + 186 x(21)#21 + 363 x(22)#22 + 153 x(23)#23
      + 411 x(24)#24 + 690 x(25)#25 + 335 x(26)#26 + 966 x(27)#27
      + 304 x(28)#28 + 218 x(29)#29 + 103 x(30)#30 + 281 x(31)#31
      + 396 x(32)#32 + 243 x(33)#33 + 411 x(34)#34 + 206 x(35)#35
      + 770 x(36)#36 + 522 x(37)#37 + 618 x(38)#38 + 2 x(39)#39 + 22 x(40)#40
      + 498 x(41)#41 + 421 x(42)#42 + 916 x(43)#43 + 787 x(44)#44
      + 663 x(45)#45 + 347 x(46)#46 + 739 x(47)#47 + 928 x(48)#48
      + 554 x(49)#49 + 544 x(50)#50 + 908 x(51)#51 + 149 x(52)#52
      + 344 x(53)#53 + 868 x(54)#54 + 208 x(55)#55 + 953 x(56)#56
      + 705 x(57)#57 + 564 x(58)#58 + 903 x(59)#59 + 81 x(60)#60 + 153 x(61)#61
      + 475 x(62)#62 + 15 x(63)#63 + 208 x(64)#64 + 64 x(65)#65 + 54 x(66)#66
      + 307 x(67)#67 + 898 x(68)#68 + 601 x(69)#69 + 666 x(70)#70
      + 292 x(71)#71 + 943 x(72)#72 + 93 x(73)#73 + 382 x(74)#74 + 728 x(75)#75
      + 567 x(76)#76 + 446 x(77)#77 + 208 x(78)#78 + 100 x(79)#79
      + 329 x(80)#80 + 411 x(81)#81 + 705 x(82)#82 + 243 x(83)#83
      + 556 x(84)#84 + 70 x(85)#85 + 664 x(86)#86 + 804 x(87)#87 + 234 x(88)#88
      + 54 x(89)#89 + 855 x(90)#90 + 812 x(91)#91 + 895 x(92)#92 + 309 x(93)#93
      + 119 x(94)#94 + 121 x(95)#95 + 413 x(96)#96 + 97 x(97)#97 + 300 x(98)#98
      + 354 x(99)#99 <= 21839
 c4:  533 x(0)#0 + 716 x(1)#1 + 432 x(2)#2 + 231 x(3)#3 + 94 x(4)#4
      + 795 x(5)#5 + 377 x(6)#6 + 572 x(7)#7 + 813 x(8)#8 + 190 x(9)#9
      + 234 x(10)#10 + 708 x(11)#11 + 904 x(12)#12 + 395 x(13)#13
      + 666 x(14)#14 + 71 x(15)#15 + 330 x(16)#16 + 979 x(17)#17 + 982 x(18)#18
      + 132 x(19)#19 + 333 x(20)#20 + 938 x(21)#21 + 351 x(22)#22
      + 925 x(23)#23 + 219 x(24)#24 + 191 x(25)#25 + 236 x(26)#26
      + 669 x(27)#27 + 11 x(28)#28 + 639 x(29)#29 + 13 x(30)#30 + 130 x(31)#31
      + 356 x(32)#32 + 66 x(33)#33 + 589 x(34)#34 + 115 x(35)#35 + 130 x(36)#36
      + 962 x(37)#37 + 101 x(38)#38 + 824 x(39)#39 + 916 x(40)#40
      + 599 x(41)#41 + 680 x(42)#42 + 891 x(43)#43 + 74 x(44)#44 + 44 x(45)#45
      + 922 x(46)#46 + 706 x(47)#47 + 687 x(48)#48 + 391 x(49)#49
      + 239 x(50)#50 + 897 x(51)#51 + 250 x(52)#52 + 108 x(53)#53
      + 997 x(54)#54 + 66 x(55)#55 + 899 x(56)#56 + 470 x(57)#57 + 209 x(58)#58
      + 477 x(59)#59 + 848 x(60)#60 + 466 x(61)#61 + 627 x(62)#62
      + 781 x(63)#63 + 117 x(64)#64 + 19 x(65)#65 + 992 x(66)#66 + 752 x(67)#67
      + 630 x(68)#68 + 508 x(69)#69 + 211 x(70)#70 + 756 x(71)#71
      + 876 x(72)#72 + 314 x(73)#73 + 451 x(74)#74 + 721 x(75)#75
      + 720 x(76)#76 + 678 x(77)#77 + 770 x(78)#78 + 355 x(79)#79
      + 147 x(80)#80 + 491 x(81)#81 + 963 x(82)#82 + 708 x(83)#83
      + 905 x(84)#84 + 868 x(85)#85 + 233 x(86)#86 + 419 x(87)#87
      + 553 x(88)#88 + 987 x(89)#89 + 464 x(90)#90 + 871 x(91)#91
      + 301 x(92)#92 + 440 x(93)#93 + 764 x(94)#94 + 810 x(95)#95
      + 106 x(96)#96 + 344 x(97)#97 + 611 x(98)#98 + 389 x(99)#99 <= 25720
 c5:  159 x(0)#0 + 361 x(1)#1 + 163 x(2)#2 + 231 x(3)#3 + 461 x(4)#4
      + 374 x(5)#5 + 331 x(6)#6 + 478 x(7)#7 + 411 x(8)#8 + 168 x(9)#9
      + 234 x(10)#10 + 817 x(11)#11 + 70 x(12)#12 + 167 x(13)#13 + 562 x(14)#14
      + 451 x(15)#15 + 978 x(16)#16 + 307 x(17)#17 + 995 x(18)#18
      + 528 x(19)#19 + 404 x(20)#20 + 749 x(21)#21 + 143 x(22)#22
      + 620 x(23)#23 + 899 x(24)#24 + 907 x(25)#25 + 849 x(26)#26
      + 544 x(27)#27 + 218 x(28)#28 + 280 x(29)#29 + 828 x(30)#30
      + 252 x(31)#31 + 974 x(32)#32 + 768 x(33)#33 + 140 x(34)#34
      + 939 x(35)#35 + 816 x(36)#36 + 756 x(37)#37 + 519 x(38)#38
      + 185 x(39)#39 + 402 x(40)#40 + 402 x(41)#41 + 602 x(42)#42
      + 486 x(43)#43 + 353 x(44)#44 + 938 x(45)#45 + 859 x(46)#46
      + 991 x(47)#47 + 302 x(48)#48 + 528 x(49)#49 + 482 x(50)#50
      + 529 x(51)#51 + 748 x(52)#52 + 164 x(53)#53 + 966 x(54)#54
      + 700 x(55)#55 + 625 x(56)#56 + 299 x(57)#57 + 801 x(58)#58
      + 673 x(59)#59 + 421 x(60)#60 + 931 x(61)#61 + 603 x(62)#62
      + 844 x(63)#63 + 484 x(64)#64 + 226 x(65)#65 + 360 x(66)#66
      + 463 x(67)#67 + 619 x(68)#68 + 299 x(69)#69 + 560 x(70)#70
      + 308 x(71)#71 + 405 x(72)#72 + 53 x(73)#73 + 425 x(74)#74 + 344 x(75)#75
      + 498 x(76)#76 + 260 x(77)#77 + 255 x(78)#78 + 400 x(79)#79
      + 164 x(80)#80 + 492 x(81)#81 + 391 x(82)#82 + 917 x(83)#83
      + 881 x(84)#84 + 345 x(85)#85 + 303 x(86)#86 + 368 x(87)#87
      + 919 x(88)#88 + 63 x(89)#89 + 805 x(90)#90 + 11 x(91)#91 + 451 x(92)#92
      + 802 x(93)#93 + 82 x(94)#94 + 804 x(95)#95 + 856 x(96)#96 + 317 x(97)#97
      + 996 x(98)#98 + 211 x(99)#99 <= 25411
 c6:  392 x(0)#0 + 84 x(1)#1 + 110 x(2)#2 + 590 x(3)#3 + 52 x(4)#4 + 112 x(5)#5
      + 752 x(6)#6 + 737 x(7)#7 + 83 x(8)#8 + 222 x(9)#9 + 102 x(10)#10
      + 959 x(11)#11 + 772 x(12)#12 + 102 x(13)#13 + 682 x(14)#14 + 14 x(15)#15
      + 780 x(16)#16 + 267 x(17)#17 + 400 x(18)#18 + 550 x(19)#19
      + 142 x(20)#20 + 200 x(21)#21 + 773 x(22)#22 + 432 x(23)#23
      + 189 x(24)#24 + 869 x(25)#25 + 751 x(26)#26 + 590 x(27)#27
      + 874 x(28)#28 + 876 x(29)#29 + 563 x(30)#30 + 950 x(31)#31
      + 958 x(32)#32 + 286 x(33)#33 + 544 x(34)#34 + 982 x(35)#35
      + 967 x(36)#36 + 820 x(37)#37 + 663 x(38)#38 + 599 x(39)#39
      + 451 x(40)#40 + 383 x(41)#41 + 559 x(42)#42 + 226 x(43)#43 + 94 x(44)#44
      + 118 x(45)#45 + 114 x(46)#46 + 35 x(47)#47 + 651 x(48)#48 + 843 x(49)#49
      + 922 x(50)#50 + 455 x(51)#51 + 108 x(52)#52 + 493 x(53)#53
      + 185 x(54)#54 + 702 x(55)#55 + 50 x(56)#56 + 971 x(57)#57 + 514 x(58)#58
      + 328 x(59)#59 + 618 x(60)#60 + 53 x(61)#61 + 995 x(62)#62 + 42 x(63)#63
      + 214 x(64)#64 + 554 x(65)#65 + 279 x(66)#66 + 110 x(67)#67
      + 159 x(68)#68 + 504 x(69)#69 + 965 x(70)#70 + 763 x(71)#71
      + 555 x(72)#72 + 168 x(73)#73 + 739 x(74)#74 + 202 x(75)#75
      + 714 x(76)#76 + 85 x(77)#77 + 872 x(78)#78 + 251 x(79)#79 + 312 x(80)#80
      + 153 x(81)#81 + 876 x(82)#82 + 731 x(83)#83 + 91 x(84)#84 + 278 x(85)#85
      + 944 x(86)#86 + 646 x(87)#87 + 985 x(88)#88 + 884 x(89)#89
      + 389 x(90)#90 + 892 x(91)#91 + 17 x(92)#92 + 248 x(93)#93 + 565 x(94)#94
      + 973 x(95)#95 + 126 x(96)#96 + 631 x(97)#97 + 147 x(98)#98
      + 412 x(99)#99 <= 24067
 c7:  163 x(0)#0 + 509 x(1)#1 + 732 x(2)#2 + 118 x(3)#3 + 953 x(4)#4
      + 936 x(5)#5 + 98 x(6)#6 + 862 x(7)#7 + 977 x(8)#8 + 795 x(9)#9
      + 708 x(10)#10 + 64 x(11)#11 + 418 x(12)#12 + 675 x(13)#13 + 151 x(14)#14
      + x(15)#15 + 50 x(16)#16 + 140 x(17)#17 + 59 x(18)#18 + 752 x(19)#19
      + 325 x(20)#20 + 553 x(21)#21 + 38 x(22)#22 + 128 x(23)#23 + 990 x(24)#24
      + 181 x(25)#25 + 737 x(26)#26 + 289 x(27)#27 + 736 x(28)#28
      + 501 x(29)#29 + 396 x(30)#30 + 234 x(31)#31 + 362 x(32)#32
      + 194 x(33)#33 + 833 x(34)#34 + 910 x(35)#35 + 439 x(36)#36
      + 447 x(37)#37 + 203 x(38)#38 + 928 x(39)#39 + 378 x(40)#40
      + 895 x(41)#41 + 637 x(42)#42 + 464 x(43)#43 + 625 x(44)#44
      + 827 x(45)#45 + 51 x(46)#46 + 635 x(47)#47 + 633 x(48)#48 + 982 x(49)#49
      + 962 x(50)#50 + 797 x(51)#51 + 931 x(52)#52 + 321 x(53)#53
      + 237 x(54)#54 + 862 x(55)#55 + 912 x(56)#56 + 126 x(57)#57
      + 774 x(58)#58 + 428 x(59)#59 + 922 x(60)#60 + 245 x(61)#61
      + 849 x(62)#62 + 430 x(63)#63 + 903 x(64)#64 + 239 x(65)#65
      + 335 x(66)#66 + 980 x(67)#67 + 948 x(68)#68 + 398 x(69)#69
      + 575 x(70)#70 + 327 x(71)#71 + 869 x(72)#72 + 745 x(73)#73
      + 405 x(74)#74 + 572 x(75)#75 + 734 x(76)#76 + 657 x(77)#77
      + 992 x(78)#78 + 208 x(79)#79 + 712 x(80)#80 + 261 x(81)#81
      + 884 x(82)#82 + 451 x(83)#83 + 508 x(84)#84 + 701 x(85)#85
      + 412 x(86)#86 + 892 x(87)#87 + 81 x(88)#88 + 368 x(89)#89 + 437 x(90)#90
      + 655 x(91)#91 + 102 x(92)#92 + 646 x(93)#93 + 515 x(94)#94
      + 833 x(95)#95 + 383 x(96)#96 + 341 x(97)#97 + 100 x(98)#98 + 64 x(99)#99
      <= 26371
 c8:  952 x(0)#0 + 117 x(1)#1 + 310 x(2)#2 + 731 x(3)#3 + 394 x(4)#4
      + 562 x(5)#5 + 249 x(6)#6 + 565 x(7)#7 + 847 x(8)#8 + 916 x(9)#9
      + 269 x(10)#10 + 808 x(11)#11 + 311 x(12)#12 + 448 x(13)#13
      + 554 x(14)#14 + 443 x(15)#15 + 65 x(16)#16 + 372 x(17)#17 + 865 x(18)#18
      + 995 x(19)#19 + 249 x(20)#20 + 981 x(21)#21 + 213 x(22)#22
      + 595 x(23)#23 + 764 x(24)#24 + 657 x(25)#25 + 513 x(26)#26
      + 251 x(27)#27 + 19 x(28)#28 + 516 x(29)#29 + 721 x(30)#30 + 186 x(31)#31
      + 763 x(32)#32 + 634 x(33)#33 + 384 x(34)#34 + 19 x(35)#35 + 745 x(36)#36
      + 809 x(37)#37 + 212 x(38)#38 + 513 x(39)#39 + 838 x(40)#40
      + 988 x(41)#41 + 827 x(42)#42 + 962 x(43)#43 + 679 x(44)#44
      + 799 x(45)#45 + 731 x(46)#46 + 165 x(47)#47 + 449 x(48)#48
      + 183 x(49)#49 + 781 x(50)#50 + 923 x(51)#51 + 622 x(52)#52
      + 588 x(53)#53 + 160 x(54)#54 + 998 x(55)#55 + 770 x(56)#56
      + 861 x(57)#57 + 308 x(58)#58 + 932 x(59)#59 + 324 x(60)#60
      + 562 x(61)#61 + 357 x(62)#62 + 34 x(63)#63 + 997 x(64)#64 + 616 x(65)#65
      + 956 x(66)#66 + 817 x(67)#67 + 11 x(68)#68 + 503 x(69)#69 + 60 x(70)#70
      + 545 x(71)#71 + 490 x(72)#72 + 194 x(73)#73 + 721 x(74)#74
      + 944 x(75)#75 + 751 x(76)#76 + 123 x(77)#77 + 137 x(78)#78 + 64 x(79)#79
      + 44 x(80)#80 + 149 x(81)#81 + 223 x(82)#82 + 404 x(83)#83 + 562 x(84)#84
      + 366 x(85)#85 + 292 x(86)#86 + 905 x(87)#87 + 985 x(88)#88
      + 779 x(89)#89 + 316 x(90)#90 + 172 x(91)#91 + 193 x(92)#92
      + 761 x(93)#93 + 593 x(94)#94 + 352 x(95)#95 + 575 x(96)#96
      + 892 x(97)#97 + 762 x(98)#98 + 956 x(99)#99 <= 26784
 c9:  662 x(0)#0 + 443 x(1)#1 + 594 x(2)#2 + 685 x(3)#3 + 51 x(4)#4
      + 486 x(5)#5 + 656 x(6)#6 + 464 x(7)#7 + 919 x(8)#8 + 780 x(9)#9
      + 290 x(10)#10 + 182 x(11)#11 + 610 x(12)#12 + 918 x(13)#13
      + 904 x(14)#14 + 910 x(15)#15 + 187 x(16)#16 + 739 x(17)#17
      + 889 x(18)#18 + 20 x(19)#19 + 114 x(20)#20 + 98 x(21)#21 + 297 x(22)#22
      + 171 x(23)#23 + 210 x(24)#24 + 17 x(25)#25 + 349 x(26)#26 + 243 x(27)#27
      + 792 x(28)#28 + 465 x(29)#29 + 956 x(30)#30 + 779 x(31)#31
      + 628 x(32)#32 + 213 x(33)#33 + 341 x(34)#34 + 781 x(35)#35
      + 682 x(36)#36 + 286 x(37)#37 + 448 x(38)#38 + 52 x(39)#39 + 495 x(40)#40
      + 913 x(41)#41 + 207 x(42)#42 + 222 x(43)#43 + 675 x(44)#44 + 75 x(45)#45
      + 416 x(46)#46 + 353 x(47)#47 + 771 x(48)#48 + 449 x(49)#49
      + 265 x(50)#50 + 639 x(51)#51 + 468 x(52)#52 + 674 x(53)#53
      + 658 x(54)#54 + 409 x(55)#55 + 951 x(56)#56 + 713 x(57)#57
      + 737 x(58)#58 + 941 x(59)#59 + 712 x(60)#60 + 268 x(61)#61
      + 568 x(62)#62 + 303 x(63)#63 + 60 x(64)#64 + 486 x(65)#65 + 95 x(66)#66
      + 41 x(67)#67 + 77 x(68)#68 + 348 x(69)#69 + 97 x(70)#70 + 602 x(71)#71
      + 247 x(72)#72 + 914 x(73)#73 + 167 x(74)#74 + 408 x(75)#75
      + 840 x(76)#76 + 139 x(77)#77 + 463 x(78)#78 + 389 x(79)#79 + 41 x(80)#80
      + 27 x(81)#81 + 226 x(82)#82 + 346 x(83)#83 + 127 x(84)#84 + 228 x(85)#85
      + 152 x(86)#86 + 806 x(87)#87 + 913 x(88)#88 + 554 x(89)#89
      + 668 x(90)#90 + 269 x(91)#91 + 239 x(92)#92 + 871 x(93)#93
      + 743 x(94)#94 + 825 x(95)#95 + 262 x(96)#96 + 646 x(97)#97
      + 678 x(98)#98 + 265 x(99)#99 <= 23226
 c10: 470 x(0)#0 + 432 x(1)#1 + 410 x(2)#2 + 60 x(3)#3 + 168 x(4)#4
      + 264 x(5)#5 + 179 x(6)#6 + 859 x(7)#7 + 80 x(8)#8 + 263 x(9)#9
      + 396 x(10)#10 + 186 x(11)#11 + 414 x(12)#12 + 550 x(13)#13 + 77 x(14)#14
      + 925 x(15)#15 + 12 x(16)#16 + 719 x(17)#17 + 715 x(18)#18 + 794 x(19)#19
      + 510 x(20)#20 + 27 x(21)#21 + 319 x(22)#22 + 106 x(23)#23 + 349 x(24)#24
      + 10 x(25)#25 + 273 x(26)#26 + 79 x(27)#27 + 763 x(28)#28 + 163 x(29)#29
      + 410 x(30)#30 + 381 x(31)#31 + 468 x(32)#32 + 393 x(33)#33
      + 916 x(34)#34 + 808 x(35)#35 + 400 x(36)#36 + 458 x(37)#37
      + 283 x(38)#38 + 825 x(39)#39 + 370 x(40)#40 + 534 x(41)#41
      + 680 x(42)#42 + 815 x(43)#43 + 760 x(44)#44 + 116 x(45)#45
      + 617 x(46)#46 + 448 x(47)#47 + 649 x(48)#48 + 204 x(49)#49
      + 394 x(50)#50 + 477 x(51)#51 + 384 x(52)#52 + 636 x(53)#53
      + 826 x(54)#54 + 230 x(55)#55 + 323 x(56)#56 + 123 x(57)#57
      + 597 x(58)#58 + 546 x(59)#59 + 9 x(60)#60 + 528 x(61)#61 + 109 x(62)#62
      + 140 x(63)#63 + 983 x(64)#64 + 24 x(65)#65 + 183 x(66)#66 + 511 x(67)#67
      + 313 x(68)#68 + 544 x(69)#69 + 782 x(70)#70 + 840 x(71)#71
      + 297 x(72)#72 + 673 x(73)#73 + 731 x(74)#74 + 398 x(75)#75
      + 409 x(76)#76 + 373 x(77)#77 + 215 x(78)#78 + 578 x(79)#79
      + 568 x(80)#80 + 210 x(81)#81 + 118 x(82)#82 + 238 x(83)#83
      + 398 x(84)#84 + 206 x(85)#85 + 124 x(86)#86 + 543 x(87)#87 + 47 x(88)#88
      + 749 x(89)#89 + 268 x(90)#90 + 682 x(91)#91 + 210 x(92)#92
      + 314 x(93)#93 + 84 x(94)#94 + 656 x(95)#95 + 463 x(96)#96 + 52 x(97)#97
      + 730 x(98)#98 + 737 x(99)#99 <= 20840
Bounds
 0 <= x(0)#0 <= 1
 0 <= x(1)#1 <= 1
 0 <= x(2)#2 <= 1
 0 <= x(3)#3 <= 1
 0 <= x(4)#4 <= 1
 0 <= x(5)#5 <= 1
 0 <= x(6)#6 <= 1
 0 <= x(7)#7 <= 1
 0 <= x(8)#8 <= 1
 0 <= x(9)#9 <= 1
 0 <= x(10)#10 <= 1
 0 <= x(11)#11 <= 1
 0 <= x(12)#12 <= 1
 0 <= x(13)#13 <= 1
 0 <= x(14)#14 <= 1
 0 <= x(15)#15 <= 1
 0 <= x(16)#16 <= 1
 0 <= x(17)#17 <= 1
 0 <= x(18)#18 <= 1
 0 <= x(19)#19 <= 1
 0 <= x(20)#20 <= 1
 0 <= x(21)#21 <= 1
 0 <= x(22)#22 <= 1
 0 <= x(23)#23 <= 1
 0 <= x(24)#24 <= 1
 0 <= x(25)#25 <= 1
 0 <= x(26)#26 <= 1
 0 <= x(27)#27 <= 1
 0 <= x(28)#28 <= 1
 0 <= x(29)#29 <= 1
 0 <= x(30)#30 <= 1
 0 <= x(31)#31 <= 1
 0 <= x(32)#32 <= 1
 0 <= x(33)#33 <= 1
 0 <= x(34)#34 <= 1
 0 <= x(35)#35 <= 1
 0 <= x(36)#36 <= 1
 0 <= x(37)#37 <= 1
 0 <= x(38)#38 <= 1
 0 <= x(39)#39 <= 1
 0 <= x(40)#40 <= 1
 0 <= x(41)#41 <= 1
 0 <= x(42)#42 <= 1
 0 <= x(43)#43 <= 1
 0 <= x(44)#44 <= 1
 0 <= x(45)#45 <= 1
 0 <= x(46)#46 <= 1
 0 <= x(47)#47 <= 1
 0 <= x(48)#48 <= 1
 0 <= x(49)#49 <= 1
 0 <= x(50)#50 <= 1
 0 <= x(51)#51 <= 1
 0 <= x(52)#52 <= 1
 0 <= x(53)#53 <= 1
 0 <= x(54)#54 <= 1
 0 <= x(55)#55 <= 1
 0 <= x(56)#56 <= 1
 0 <= x(57)#57 <= 1
 0 <= x(58)#58 <= 1
 0 <= x(59)#59 <= 1
 0 <= x(60)#60 <= 1
 0 <= x(61)#61 <= 1
 0 <= x(62)#62 <= 1
 0 <= x(63)#63 <= 1
 0 <= x(64)#64 <= 1
 0 <= x(65)#65 <= 1
 0 <= x(66)#66 <= 1
 0 <= x(67)#67 <= 1
 0 <= x(68)#68 <= 1
 0 <= x(69)#69 <= 1
 0 <= x(70)#70 <= 1
 0 <= x(71)#71 <= 1
 0 <= x(72)#72 <= 1
 0 <= x(73)#73 <= 1
 0 <= x(74)#74 <= 1
 0 <= x(75)#75 <= 1
 0 <= x(76)#76 <= 1
 0 <= x(77)#77 <= 1
 0 <= x(78)#78 <= 1
 0 <= x(79)#79 <= 1
 0 <= x(80)#80 <= 1
 0 <= x(81)#81 <= 1
 0 <= x(82)#82 <= 1
 0 <= x(83)#83 <= 1
 0 <= x(84)#84 <= 1
 0 <= x(85)#85 <= 1
 0 <= x(86)#86 <= 1
 0 <= x(87)#87 <= 1
 0 <= x(88)#88 <= 1
 0 <= x(89)#89 <= 1
 0 <= x(90)#90 <= 1
 0 <= x(91)#91 <= 1
 0 <= x(92)#92 <= 1
 0 <= x(93)#93 <= 1
 0 <= x(94)#94 <= 1
 0 <= x(95)#95 <= 1
 0 <= x(96)#96 <= 1
 0 <= x(97)#97 <= 1
 0 <= x(98)#98 <= 1
 0 <= x(99)#99 <= 1
Generals
 x(0)#0  x(1)#1  x(2)#2  x(3)#3  x(4)#4  x(5)#5  x(6)#6  x(7)#7  x(8)#8 
 x(9)#9  x(10)#10  x(11)#11  x(12)#12  x(13)#13  x(14)#14  x(15)#15  x(16)#16 
 x(17)#17  x(18)#18  x(19)#19  x(20)#20  x(21)#21  x(22)#22  x(23)#23 
 x(24)#24  x(25)#25  x(26)#26  x(27)#27  x(28)#28  x(29)#29  x(30)#30 
 x(31)#31  x(32)#32  x(33)#33  x(34)#34  x(35)#35  x(36)#36  x(37)#37 
 x(38)#38  x(39)#39  x(40)#40  x(41)#41  x(42)#42  x(43)#43  x(44)#44 
 x(45)#45  x(46)#46  x(47)#47  x(48)#48  x(49)#49  x(50)#50  x(51)#51 
 x(52)#52  x(53)#53  x(54)#54  x(55)#55  x(56)#56  x(57)#57  x(58)#58 
 x(59)#59  x(60)#60  x(61)#61  x(62)#62  x(63)#63  x(64)#64  x(65)#65 
 x(66)#66  x(67)#67  x(68)#68  x(69)#69  x(70)#70  x(71)#71  x(72)#72 
 x(73)#73  x(74)#74  x(75)#75  x(76)#76  x(77)#77  x(78)#78  x(79)#79 
 x(80)#80  x(81)#81  x(82)#82  x(83)#83  x(84)#84  x(85)#85  x(86)#86 
 x(87)#87  x(88)#88  x(89)#89  x(90)#90  x(91)#91  x(92)#92  x(93)#93 
 x(94)#94  x(95)#95  x(96)#96  x(97)#97  x(98)#98  x(99)#99 
End
